\ENCODING=ISO-8859-1
\Problem name: ilog.cplex

Minimize
 obj1: 104517 x1 + 108240 x2 + 95212 x3 + 95047 x4 + 105253 x5 + 97854 x6
       + 97250 x7 + 95706 x8 + 99940 x9 + 108667 x10 + 104243 x11 + 98279 x12
       + 97119 x13 + 104821 x14 + 91029 x15 + 95484 x16 + 106145 x17
       + 93560 x18 + 98967 x19 + 106593 x20 + 103355 x21 + 91795 x22
       + 92360 x23 + 98680 x24 + 95998 x25 + 93049 x26 + 100898 x27 + 92585 x28
       + 102715 x29 + 94335 x30 + 106552 x31 + 98119 x32 + 100047 x33
       + 90178 x34 + 109321 x35 + 108578 x36 + 90692 x37 + 109289 x38
       + 107788 x39 + 100698 x40 + 91130 x41 + 98363 x42 + 97670 x43
       + 92951 x44 + 93773 x45 + 106959 x46 + 104382 x47 + 92434 x48
       + 91903 x49 + 97665 x50 + 96501 x51 + 91676 x52 + 90656 x53 + 102230 x54
       + 109960 x55 + 104279 x56 + 94811 x57 + 96579 x58 + 107141 x59
       + 103312 x60 + 107190 x61 + 108391 x62 + 98089 x63 + 100204 x64
       + 98987 x65 + 105048 x66 + 92775 x67 + 96558 x68 + 91364 x69
       + 101063 x70 + 99058 x71 + 102222 x72 + 99382 x73 + 100056 x74
       + 92539 x75 + 92405 x76 + 106651 x77 + 94019 x78 + 106373 x79
       + 108476 x80 + 95338 x81 + 109601 x82 + 104928 x83 + 96133 x84
       + 99786 x85 + 100507 x86 + 101584 x87 + 109384 x88 + 106260 x89
       + 90140 x90 + 98035 x91 + 109053 x92 + 106180 x93 + 109264 x94
       + 100116 x95 + 90541 x96 + 105678 x97 + 109714 x98 + 103492 x99
       + 107116 x100 + 92220 x101 + 101729 x102 + 92995 x103 + 106699 x104
       + 107118 x105 + 106020 x106 + 100061 x107 + 98851 x108 + 108685 x109
       + 100385 x110 + 102735 x111 + 90901 x112 + 106167 x113 + 102201 x114
       + 109979 x115 + 108372 x116 + 95512 x117 + 92756 x118 + 97044 x119
       + 97712 x120 + 105154 x121 + 93294 x122 + 108602 x123 + 102778 x124
       + 98120 x125 + 92789 x126 + 106973 x127 + 91645 x128 + 91899 x129
       + 107829 x130 + 96019 x131 + 99916 x132 + 99716 x133 + 96705 x134
       + 103835 x135 + 101241 x136 + 104698 x137 + 102194 x138 + 95472 x139
       + 100931 x140 + 91865 x141 + 100485 x142 + 90733 x143 + 94366 x144
       + 101962 x145 + 107334 x146 + 101461 x147 + 98304 x148 + 95873 x149
       + 96748 x150 + 102386 x151 + 103112 x152 + 98807 x153 + 108202 x154
       + 97341 x155 + 105173 x156 + 95914 x157 + 95211 x158 + 104063 x159
       + 109746 x160 + 91439 x161 + 108108 x162 + 92972 x163 + 104461 x164
       + 99341 x165 + 109722 x166 + 105611 x167 + 90612 x168 + 95446 x169
       + 90711 x170 + 106215 x171 + 90984 x172 + 97351 x173 + 108942 x174
       + 104190 x175 + 105733 x176 + 108477 x177 + 93703 x178 + 99206 x179
       + 108403 x180 + 100371 x181 + 98969 x182 + 100485 x183 + 109825 x184
       + 99970 x185 + 90883 x186 + 102376 x187 + 108908 x188 + 101912 x189
       + 101215 x190 + 99375 x191 + 96227 x192 + 99842 x193 + 90749 x194
       + 95531 x195 + 98828 x196 + 105254 x197 + 104400 x198 + 105514 x199
       + 92817 x200 + 104078 x201 + 104920 x202 + 108255 x203 + 92617 x204
       + 106843 x205 + 91684 x206 + 103376 x207 + 106514 x208 + 94874 x209
       + 105539 x210 + 109664 x211 + 90305 x212 + 100643 x213 + 94913 x214
       + 103459 x215 + 95108 x216 + 94188 x217 + 105647 x218 + 106920 x219
       + 97323 x220 + 105193 x221 + 104798 x222 + 94563 x223 + 95123 x224
       + 99383 x225 + 99021 x226 + 102816 x227 + 94974 x228 + 103446 x229
       + 95110 x230 + 98008 x231 + 104872 x232 + 91489 x233 + 91135 x234
       + 92265 x235 + 99573 x236 + 100405 x237 + 107996 x238 + 96521 x239
       + 102366 x240 + 91567 x241 + 93280 x242 + 105160 x243 + 97773 x244
       + 101894 x245 + 91985 x246 + 97785 x247 + 90066 x248 + 108618 x249
       + 101970 x250 + 95923 x251 + 108659 x252 + 102617 x253 + 108494 x254
       + 96180 x255 + 90169 x256 + 100904 x257 + 99932 x258 + 93914 x259
       + 103263 x260 + 93890 x261 + 98249 x262 + 90006 x263 + 105040 x264
       + 100395 x265 + 96903 x266 + 101344 x267 + 93130 x268 + 104658 x269
       + 105407 x270 + 103327 x271 + 102487 x272 + 104547 x273 + 98879 x274
       + 107071 x275 + 92643 x276 + 97234 x277 + 96575 x278 + 98043 x279
       + 102621 x280 + 99728 x281 + 108269 x282 + 91860 x283 + 97944 x284
       + 108411 x285 + 104872 x286 + 92467 x287 + 107005 x288 + 99083 x289
       + 102833 x290 + 108130 x291 + 102518 x292 + 97010 x293 + 100620 x294
       + 91456 x295 + 107838 x296 + 105075 x297 + 109988 x298 + 101102 x299
       + 97674 x300 + 98019 x301 + 105530 x302 + 105425 x303 + 96427 x304
       + 91104 x305 + 95202 x306 + 109378 x307 + 91786 x308 + 97756 x309
       + 91981 x310 + 103007 x311 + 104360 x312 + 101732 x313 + 106821 x314
       + 95002 x315 + 93527 x316 + 98461 x317 + 94171 x318 + 107883 x319
       + 95572 x320 + 94062 x321 + 108612 x322 + 98776 x323 + 102272 x324
       + 109597 x325 + 109522 x326 + 109782 x327 + 108671 x328 + 100219 x329
       + 107536 x330 + 93314 x331 + 98641 x332 + 99213 x333 + 91396 x334
       + 98436 x335 + 94510 x336 + 102889 x337 + 109307 x338 + 100472 x339
       + 95342 x340 + 103845 x341 + 105000 x342 + 108090 x343 + 107364 x344
       + 97363 x345 + 105479 x346 + 109564 x347 + 109619 x348 + 108499 x349
       + 104735 x350 + 105774 x351 + 94474 x352 + 92062 x353 + 102421 x354
       + 91833 x355 + 101177 x356 + 109055 x357 + 102532 x358 + 96984 x359
       + 109100 x360 + 94353 x361 + 101349 x362 + 96107 x363 + 97443 x364
       + 96811 x365 + 91734 x366 + 94776 x367 + 105595 x368 + 103527 x369
       + 91947 x370 + 90645 x371 + 94221 x372 + 91089 x373 + 108816 x374
       + 99726 x375 + 104861 x376 + 95325 x377 + 99148 x378 + 93262 x379
       + 90549 x380 + 106687 x381 + 95573 x382 + 93911 x383 + 93730 x384
       + 104216 x385 + 102074 x386 + 93567 x387 + 107137 x388 + 107448 x389
       + 109202 x390 + 99385 x391 + 108318 x392 + 92679 x393 + 109263 x394
       + 109433 x395 + 109153 x396 + 107686 x397 + 107755 x398 + 104875 x399
       + 107963 x400 + 93700 x401 + 101102 x402 + 100316 x403 + 92008 x404
       + 109244 x405 + 94255 x406 + 94740 x407 + 101183 x408 + 93969 x409
       + 92280 x410 + 105110 x411 + 97424 x412 + 94500 x413 + 91863 x414
       + 93459 x415 + 106009 x416 + 96999 x417 + 90816 x418 + 103748 x419
       + 92074 x420 + 94316 x421 + 102571 x422 + 104092 x423 + 94468 x424
       + 97003 x425 + 93187 x426 + 104808 x427 + 104049 x428 + 108437 x429
       + 92182 x430 + 105299 x431 + 100847 x432 + 91223 x433 + 102411 x434
       + 94955 x435 + 96268 x436 + 94540 x437 + 108757 x438 + 91149 x439
       + 108890 x440 + 90248 x441 + 100603 x442 + 100804 x443 + 95342 x444
       + 99347 x445 + 98822 x446 + 101117 x447 + 101445 x448 + 99770 x449
       + 94477 x450 + 103447 x451 + 95006 x452 + 90157 x453 + 95710 x454
       + 98897 x455 + 102855 x456 + 106072 x457 + 100704 x458 + 101783 x459
       + 108497 x460 + 94040 x461 + 99686 x462 + 108540 x463 + 98300 x464
       + 107344 x465 + 92474 x466 + 94620 x467 + 90029 x468 + 100755 x469
       + 106761 x470 + 92752 x471 + 108118 x472 + 101965 x473 + 93126 x474
       + 105565 x475 + 104707 x476 + 109425 x477 + 102433 x478 + 93682 x479
       + 96891 x480 + 92390 x481 + 104284 x482 + 102396 x483 + 95952 x484
       + 98808 x485 + 90820 x486 + 92761 x487 + 95325 x488 + 97184 x489
       + 91453 x490 + 106190 x491 + 100585 x492 + 109668 x493 + 100984 x494
       + 95614 x495 + 107010 x496 + 95358 x497 + 96097 x498 + 100785 x499
       + 70186 x500 + 40281 x501 + 36303 x502 + 42504 x503 + 40154 x504
       + 41117 x505 + 43212 x506 + 42747 x507 + 39643 x508 + 36520 x509
       + 43916 x510 + 41430 x511 + 41590 x512 + 37346 x513 + 40996 x514
       + 37787 x515 + 36789 x516 + 38085 x517 + 36878 x518 + 43208 x519
       + 37283 x520 + 37432 x521 + 43030 x522 + 43532 x523 + 36529 x524
       + 39029 x525 + 40762 x526 + 42347 x527 + 38992 x528 + 38096 x529
       + 41183 x530 + 39905 x531 + 36586 x532 + 43586 x533 + 36249 x534
       + 43541 x535 + 40135 x536 + 42228 x537 + 44000 x538 + 39578 x539
       + 43502 x540 + 40233 x541 + 36913 x542 + 43516 x543 + 42343 x544
       + 40664 x545 + 38987 x546 + 36862 x547 + 36411 x548 + 37395 x549
       + 38645 x550
Subject To
 c1:   x3 + x6 + x22 + x24 - x31 - x33 + x34 - x43 - x49 - x50  = 1
 c2:   x53 + x56 + x72 + x74 - x81 - x83 + x84 - x93 - x99 - x100  = 0
 c3:   x103 + x106 + x122 + x124 - x131 - x133 + x134 - x143 - x149 - x150  = 0
 c4:   x153 + x156 + x172 + x174 - x181 - x183 + x184 - x193 - x199 - x200  = 1
 c5:   x203 + x206 + x222 + x224 - x231 - x233 + x234 - x243 - x249 - x250  = 0
 c6:   x253 + x256 + x272 + x274 - x281 - x283 + x284 - x293 - x299 - x300  = 0
 c7:   x303 + x306 + x322 + x324 - x331 - x333 + x334 - x343 - x349 - x350  = 0
 c8:   x353 + x356 + x372 + x374 - x381 - x383 + x384 - x393 - x399 - x400  = 0
 c9:   x403 + x406 + x422 + x424 - x431 - x433 + x434 - x443 - x449 - x450  = 0
 c10:  x453 + x456 + x472 + x474 - x481 - x483 + x484 - x493 - x499 - x500
        = -1
 c11:  - x4 + x7 + x13 - x16 + x23 + x28 - x36  = 0
 c12:  - x54 + x57 + x63 - x66 + x73 + x78 - x86  = 0
 c13:  - x104 + x107 + x113 - x116 + x123 + x128 - x136  = 0
 c14:  - x154 + x157 + x163 - x166 + x173 + x178 - x186  = 0
 c15:  - x204 + x207 + x213 - x216 + x223 + x228 - x236  = 0
 c16:  - x254 + x257 + x263 - x266 + x273 + x278 - x286  = 1
 c17:  - x304 + x307 + x313 - x316 + x323 + x328 - x336  = 0
 c18:  - x354 + x357 + x363 - x366 + x373 + x378 - x386  = 0
 c19:  - x404 + x407 + x413 - x416 + x423 + x428 - x436  = 0
 c20:  - x454 + x457 + x463 - x466 + x473 + x478 - x486  = 1
 c21:  - x1 - x3 - x13 + x14 - x15 + x16 + x18 + x19 - x25 - x35 + x39  = 0
 c22:  - x51 - x53 - x63 + x64 - x65 + x66 + x68 + x69 - x75 - x85 + x89  = 0
 c23:  - x101 - x103 - x113 + x114 - x115 + x116 + x118 + x119 - x125 - x135
       + x139  = 0
 c24:  - x151 - x153 - x163 + x164 - x165 + x166 + x168 + x169 - x175 - x185
       + x189  = 0
 c25:  - x201 - x203 - x213 + x214 - x215 + x216 + x218 + x219 - x225 - x235
       + x239  = 0
 c26:  - x251 - x253 - x263 + x264 - x265 + x266 + x268 + x269 - x275 - x285
       + x289  = 0
 c27:  - x301 - x303 - x313 + x314 - x315 + x316 + x318 + x319 - x325 - x335
       + x339  = -1
 c28:  - x351 - x353 - x363 + x364 - x365 + x366 + x368 + x369 - x375 - x385
       + x389  = -1
 c29:  - x401 - x403 - x413 + x414 - x415 + x416 + x418 + x419 - x425 - x435
       + x439  = 0
 c30:  - x451 - x453 - x463 + x464 - x465 + x466 + x468 + x469 - x475 - x485
       + x489  = 0
 c31:  - x5 - x8 - x24 - x30 + x33 + x35 - x45 + x46  = 0
 c32:  - x55 - x58 - x74 - x80 + x83 + x85 - x95 + x96  = 0
 c33:  - x105 - x108 - x124 - x130 + x133 + x135 - x145 + x146  = 0
 c34:  - x155 - x158 - x174 - x180 + x183 + x185 - x195 + x196  = 0
 c35:  - x205 - x208 - x224 - x230 + x233 + x235 - x245 + x246  = -1
 c36:  - x255 - x258 - x274 - x280 + x283 + x285 - x295 + x296  = 0
 c37:  - x305 - x308 - x324 - x330 + x333 + x335 - x345 + x346  = 0
 c38:  - x355 - x358 - x374 - x380 + x383 + x385 - x395 + x396  = 0
 c39:  - x405 - x408 - x424 - x430 + x433 + x435 - x445 + x446  = 0
 c40:  - x455 - x458 - x474 - x480 + x483 + x485 - x495 + x496  = 0
 c41:  x1 + x5 - x10 + x11 - x14 + x26 + x27 - x29 + x32 - x34 - x38 - x41
       + x43 - x46 + x48  = 0
 c42:  x51 + x55 - x60 + x61 - x64 + x76 + x77 - x79 + x82 - x84 - x88 - x91
       + x93 - x96 + x98  = 0
 c43:  x101 + x105 - x110 + x111 - x114 + x126 + x127 - x129 + x132 - x134
       - x138 - x141 + x143 - x146 + x148  = 0
 c44:  x151 + x155 - x160 + x161 - x164 + x176 + x177 - x179 + x182 - x184
       - x188 - x191 + x193 - x196 + x198  = 0
 c45:  x201 + x205 - x210 + x211 - x214 + x226 + x227 - x229 + x232 - x234
       - x238 - x241 + x243 - x246 + x248  = 0
 c46:  x251 + x255 - x260 + x261 - x264 + x276 + x277 - x279 + x282 - x284
       - x288 - x291 + x293 - x296 + x298  = 0
 c47:  x301 + x305 - x310 + x311 - x314 + x326 + x327 - x329 + x332 - x334
       - x338 - x341 + x343 - x346 + x348  = 0
 c48:  x351 + x355 - x360 + x361 - x364 + x376 + x377 - x379 + x382 - x384
       - x388 - x391 + x393 - x396 + x398  = 1
 c49:  x401 + x405 - x410 + x411 - x414 + x426 + x427 - x429 + x432 - x434
       - x438 - x441 + x443 - x446 + x448  = 0
 c50:  x451 + x455 - x460 + x461 - x464 + x476 + x477 - x479 + x482 - x484
       - x488 - x491 + x493 - x496 + x498  = 0
 c51:  - x9 + x10 - x12 + x20 - x26 - x28 - x40 + x47 + x50  = 0
 c52:  - x59 + x60 - x62 + x70 - x76 - x78 - x90 + x97 + x100  = 0
 c53:  - x109 + x110 - x112 + x120 - x126 - x128 - x140 + x147 + x150  = -1
 c54:  - x159 + x160 - x162 + x170 - x176 - x178 - x190 + x197 + x200  = 0
 c55:  - x209 + x210 - x212 + x220 - x226 - x228 - x240 + x247 + x250  = 0
 c56:  - x259 + x260 - x262 + x270 - x276 - x278 - x290 + x297 + x300  = 0
 c57:  - x309 + x310 - x312 + x320 - x326 - x328 - x340 + x347 + x350  = 0
 c58:  - x359 + x360 - x362 + x370 - x376 - x378 - x390 + x397 + x400  = 0
 c59:  - x409 + x410 - x412 + x420 - x426 - x428 - x440 + x447 + x450  = -1
 c60:  - x459 + x460 - x462 + x470 - x476 - x478 - x490 + x497 + x500  = 0
 c61:  - x2 - x7 + x8 - x11 + x17 + x25 - x37 - x39 + x41 + x49  = -1
 c62:  - x52 - x57 + x58 - x61 + x67 + x75 - x87 - x89 + x91 + x99  = 0
 c63:  - x102 - x107 + x108 - x111 + x117 + x125 - x137 - x139 + x141 + x149
        = 0
 c64:  - x152 - x157 + x158 - x161 + x167 + x175 - x187 - x189 + x191 + x199
        = 0
 c65:  - x202 - x207 + x208 - x211 + x217 + x225 - x237 - x239 + x241 + x249
        = 1
 c66:  - x252 - x257 + x258 - x261 + x267 + x275 - x287 - x289 + x291 + x299
        = 0
 c67:  - x302 - x307 + x308 - x311 + x317 + x325 - x337 - x339 + x341 + x349
        = 0
 c68:  - x352 - x357 + x358 - x361 + x367 + x375 - x387 - x389 + x391 + x399
        = 0
 c69:  - x402 - x407 + x408 - x411 + x417 + x425 - x437 - x439 + x441 + x449
        = 0
 c70:  - x452 - x457 + x458 - x461 + x467 + x475 - x487 - x489 + x491 + x499
        = 0
 c71:  x4 - x6 - x17 - x23 - x27 + x31 + x38 + x40 - x42 + x45  = 0
 c72:  x54 - x56 - x67 - x73 - x77 + x81 + x88 + x90 - x92 + x95  = -1
 c73:  x104 - x106 - x117 - x123 - x127 + x131 + x138 + x140 - x142 + x145  = 0
 c74:  x154 - x156 - x167 - x173 - x177 + x181 + x188 + x190 - x192 + x195  = 0
 c75:  x204 - x206 - x217 - x223 - x227 + x231 + x238 + x240 - x242 + x245  = 0
 c76:  x254 - x256 - x267 - x273 - x277 + x281 + x288 + x290 - x292 + x295  = 0
 c77:  x304 - x306 - x317 - x323 - x327 + x331 + x338 + x340 - x342 + x345  = 1
 c78:  x354 - x356 - x367 - x373 - x377 + x381 + x388 + x390 - x392 + x395  = 0
 c79:  x404 - x406 - x417 - x423 - x427 + x431 + x438 + x440 - x442 + x445  = 0
 c80:  x454 - x456 - x467 - x473 - x477 + x481 + x488 + x490 - x492 + x495  = 0
 c81:  x12 - x18 - x21 + x37 + x44 - x47 - x48  = 0
 c82:  x62 - x68 - x71 + x87 + x94 - x97 - x98  = 0
 c83:  x112 - x118 - x121 + x137 + x144 - x147 - x148  = 1
 c84:  x162 - x168 - x171 + x187 + x194 - x197 - x198  = 0
 c85:  x212 - x218 - x221 + x237 + x244 - x247 - x248  = 0
 c86:  x262 - x268 - x271 + x287 + x294 - x297 - x298  = 0
 c87:  x312 - x318 - x321 + x337 + x344 - x347 - x348  = 0
 c88:  x362 - x368 - x371 + x387 + x394 - x397 - x398  = 0
 c89:  x412 - x418 - x421 + x437 + x444 - x447 - x448  = 0
 c90:  x462 - x468 - x471 + x487 + x494 - x497 - x498  = 0
 c91:  x2 + x9 + x15 - x19 - x20 + x21 - x22 + x29 + x30 - x32 + x36 + x42
       - x44  = 0
 c92:  x52 + x59 + x65 - x69 - x70 + x71 - x72 + x79 + x80 - x82 + x86 + x92
       - x94  = 1
 c93:  x102 + x109 + x115 - x119 - x120 + x121 - x122 + x129 + x130 - x132
       + x136 + x142 - x144  = 0
 c94:  x152 + x159 + x165 - x169 - x170 + x171 - x172 + x179 + x180 - x182
       + x186 + x192 - x194  = -1
 c95:  x202 + x209 + x215 - x219 - x220 + x221 - x222 + x229 + x230 - x232
       + x236 + x242 - x244  = 0
 c96:  x252 + x259 + x265 - x269 - x270 + x271 - x272 + x279 + x280 - x282
       + x286 + x292 - x294  = -1
 c97:  x302 + x309 + x315 - x319 - x320 + x321 - x322 + x329 + x330 - x332
       + x336 + x342 - x344  = 0
 c98:  x352 + x359 + x365 - x369 - x370 + x371 - x372 + x379 + x380 - x382
       + x386 + x392 - x394  = 0
 c99:  x402 + x409 + x415 - x419 - x420 + x421 - x422 + x429 + x430 - x432
       + x436 + x442 - x444  = 1
 c100: x452 + x459 + x465 - x469 - x470 + x471 - x472 + x479 + x480 - x482
       + x486 + x492 - x494  = 0
 c101: 4 x1 + 4 x51 + 4 x101 + 4 x151 + 4 x201 + 4 x251 + 4 x301 + 4 x351
       + 4 x401 + 4 x451 - 20 x501 <= 0
 c102: 4 x2 + 4 x52 + 4 x102 + 4 x152 + 4 x202 + 4 x252 + 4 x302 + 4 x352
       + 4 x402 + 4 x452 - 19 x502 <= 0
 c103: 4 x3 + 4 x53 + 4 x103 + 4 x153 + 4 x203 + 4 x253 + 4 x303 + 4 x353
       + 4 x403 + 4 x453 - 22 x503 <= 0
 c104: 4 x4 + 4 x54 + 4 x104 + 4 x154 + 4 x204 + 4 x254 + 4 x304 + 4 x354
       + 4 x404 + 4 x454 - 22 x504 <= 0
 c105: 4 x5 + 4 x55 + 4 x105 + 4 x155 + 4 x205 + 4 x255 + 4 x305 + 4 x355
       + 4 x405 + 4 x455 - 19 x505 <= 0
 c106: 4 x6 + 4 x56 + 4 x106 + 4 x156 + 4 x206 + 4 x256 + 4 x306 + 4 x356
       + 4 x406 + 4 x456 - 18 x506 <= 0
 c107: 4 x7 + 4 x57 + 4 x107 + 4 x157 + 4 x207 + 4 x257 + 4 x307 + 4 x357
       + 4 x407 + 4 x457 - 21 x507 <= 0
 c108: 4 x8 + 4 x58 + 4 x108 + 4 x158 + 4 x208 + 4 x258 + 4 x308 + 4 x358
       + 4 x408 + 4 x458 - 20 x508 <= 0
 c109: 4 x9 + 4 x59 + 4 x109 + 4 x159 + 4 x209 + 4 x259 + 4 x309 + 4 x359
       + 4 x409 + 4 x459 - 21 x509 <= 0
 c110: 4 x10 + 4 x60 + 4 x110 + 4 x160 + 4 x210 + 4 x260 + 4 x310 + 4 x360
       + 4 x410 + 4 x460 - 19 x510 <= 0
 c111: 4 x11 + 4 x61 + 4 x111 + 4 x161 + 4 x211 + 4 x261 + 4 x311 + 4 x361
       + 4 x411 + 4 x461 - 19 x511 <= 0
 c112: 4 x12 + 4 x62 + 4 x112 + 4 x162 + 4 x212 + 4 x262 + 4 x312 + 4 x362
       + 4 x412 + 4 x462 - 20 x512 <= 0
 c113: 4 x13 + 4 x63 + 4 x113 + 4 x163 + 4 x213 + 4 x263 + 4 x313 + 4 x363
       + 4 x413 + 4 x463 - 21 x513 <= 0
 c114: 4 x14 + 4 x64 + 4 x114 + 4 x164 + 4 x214 + 4 x264 + 4 x314 + 4 x364
       + 4 x414 + 4 x464 - 22 x514 <= 0
 c115: 4 x15 + 4 x65 + 4 x115 + 4 x165 + 4 x215 + 4 x265 + 4 x315 + 4 x365
       + 4 x415 + 4 x465 - 20 x515 <= 0
 c116: 4 x16 + 4 x66 + 4 x116 + 4 x166 + 4 x216 + 4 x266 + 4 x316 + 4 x366
       + 4 x416 + 4 x466 - 20 x516 <= 0
 c117: 4 x17 + 4 x67 + 4 x117 + 4 x167 + 4 x217 + 4 x267 + 4 x317 + 4 x367
       + 4 x417 + 4 x467 - 22 x517 <= 0
 c118: 4 x18 + 4 x68 + 4 x118 + 4 x168 + 4 x218 + 4 x268 + 4 x318 + 4 x368
       + 4 x418 + 4 x468 - 21 x518 <= 0
 c119: 4 x19 + 4 x69 + 4 x119 + 4 x169 + 4 x219 + 4 x269 + 4 x319 + 4 x369
       + 4 x419 + 4 x469 - 19 x519 <= 0
 c120: 4 x20 + 4 x70 + 4 x120 + 4 x170 + 4 x220 + 4 x270 + 4 x320 + 4 x370
       + 4 x420 + 4 x470 - 21 x520 <= 0
 c121: 4 x21 + 4 x71 + 4 x121 + 4 x171 + 4 x221 + 4 x271 + 4 x321 + 4 x371
       + 4 x421 + 4 x471 - 21 x521 <= 0
 c122: 4 x22 + 4 x72 + 4 x122 + 4 x172 + 4 x222 + 4 x272 + 4 x322 + 4 x372
       + 4 x422 + 4 x472 - 21 x522 <= 0
 c123: 4 x23 + 4 x73 + 4 x123 + 4 x173 + 4 x223 + 4 x273 + 4 x323 + 4 x373
       + 4 x423 + 4 x473 - 18 x523 <= 0
 c124: 4 x24 + 4 x74 + 4 x124 + 4 x174 + 4 x224 + 4 x274 + 4 x324 + 4 x374
       + 4 x424 + 4 x474 - 20 x524 <= 0
 c125: 4 x25 + 4 x75 + 4 x125 + 4 x175 + 4 x225 + 4 x275 + 4 x325 + 4 x375
       + 4 x425 + 4 x475 - 21 x525 <= 0
 c126: 4 x26 + 4 x76 + 4 x126 + 4 x176 + 4 x226 + 4 x276 + 4 x326 + 4 x376
       + 4 x426 + 4 x476 - 18 x526 <= 0
 c127: 4 x27 + 4 x77 + 4 x127 + 4 x177 + 4 x227 + 4 x277 + 4 x327 + 4 x377
       + 4 x427 + 4 x477 - 20 x527 <= 0
 c128: 4 x28 + 4 x78 + 4 x128 + 4 x178 + 4 x228 + 4 x278 + 4 x328 + 4 x378
       + 4 x428 + 4 x478 - 21 x528 <= 0
 c129: 4 x29 + 4 x79 + 4 x129 + 4 x179 + 4 x229 + 4 x279 + 4 x329 + 4 x379
       + 4 x429 + 4 x479 - 18 x529 <= 0
 c130: 4 x30 + 4 x80 + 4 x130 + 4 x180 + 4 x230 + 4 x280 + 4 x330 + 4 x380
       + 4 x430 + 4 x480 - 18 x530 <= 0
 c131: 4 x31 + 4 x81 + 4 x131 + 4 x181 + 4 x231 + 4 x281 + 4 x331 + 4 x381
       + 4 x431 + 4 x481 - 20 x531 <= 0
 c132: 4 x32 + 4 x82 + 4 x132 + 4 x182 + 4 x232 + 4 x282 + 4 x332 + 4 x382
       + 4 x432 + 4 x482 - 20 x532 <= 0
 c133: 4 x33 + 4 x83 + 4 x133 + 4 x183 + 4 x233 + 4 x283 + 4 x333 + 4 x383
       + 4 x433 + 4 x483 - 18 x533 <= 0
 c134: 4 x34 + 4 x84 + 4 x134 + 4 x184 + 4 x234 + 4 x284 + 4 x334 + 4 x384
       + 4 x434 + 4 x484 - 21 x534 <= 0
 c135: 4 x35 + 4 x85 + 4 x135 + 4 x185 + 4 x235 + 4 x285 + 4 x335 + 4 x385
       + 4 x435 + 4 x485 - 20 x535 <= 0
 c136: 4 x36 + 4 x86 + 4 x136 + 4 x186 + 4 x236 + 4 x286 + 4 x336 + 4 x386
       + 4 x436 + 4 x486 - 22 x536 <= 0
 c137: 4 x37 + 4 x87 + 4 x137 + 4 x187 + 4 x237 + 4 x287 + 4 x337 + 4 x387
       + 4 x437 + 4 x487 - 21 x537 <= 0
 c138: 4 x38 + 4 x88 + 4 x138 + 4 x188 + 4 x238 + 4 x288 + 4 x338 + 4 x388
       + 4 x438 + 4 x488 - 20 x538 <= 0
 c139: 4 x39 + 4 x89 + 4 x139 + 4 x189 + 4 x239 + 4 x289 + 4 x339 + 4 x389
       + 4 x439 + 4 x489 - 21 x539 <= 0
 c140: 4 x40 + 4 x90 + 4 x140 + 4 x190 + 4 x240 + 4 x290 + 4 x340 + 4 x390
       + 4 x440 + 4 x490 - 20 x540 <= 0
 c141: 4 x41 + 4 x91 + 4 x141 + 4 x191 + 4 x241 + 4 x291 + 4 x341 + 4 x391
       + 4 x441 + 4 x491 - 22 x541 <= 0
 c142: 4 x42 + 4 x92 + 4 x142 + 4 x192 + 4 x242 + 4 x292 + 4 x342 + 4 x392
       + 4 x442 + 4 x492 - 18 x542 <= 0
 c143: 4 x43 + 4 x93 + 4 x143 + 4 x193 + 4 x243 + 4 x293 + 4 x343 + 4 x393
       + 4 x443 + 4 x493 - 19 x543 <= 0
 c144: 4 x44 + 4 x94 + 4 x144 + 4 x194 + 4 x244 + 4 x294 + 4 x344 + 4 x394
       + 4 x444 + 4 x494 - 22 x544 <= 0
 c145: 4 x45 + 4 x95 + 4 x145 + 4 x195 + 4 x245 + 4 x295 + 4 x345 + 4 x395
       + 4 x445 + 4 x495 - 21 x545 <= 0
 c146: 4 x46 + 4 x96 + 4 x146 + 4 x196 + 4 x246 + 4 x296 + 4 x346 + 4 x396
       + 4 x446 + 4 x496 - 19 x546 <= 0
 c147: 4 x47 + 4 x97 + 4 x147 + 4 x197 + 4 x247 + 4 x297 + 4 x347 + 4 x397
       + 4 x447 + 4 x497 - 19 x547 <= 0
 c148: 4 x48 + 4 x98 + 4 x148 + 4 x198 + 4 x248 + 4 x298 + 4 x348 + 4 x398
       + 4 x448 + 4 x498 - 20 x548 <= 0
 c149: 4 x49 + 4 x99 + 4 x149 + 4 x199 + 4 x249 + 4 x299 + 4 x349 + 4 x399
       + 4 x449 + 4 x499 - 20 x549 <= 0
 c150: 4 x50 + 4 x100 + 4 x150 + 4 x200 + 4 x250 + 4 x300 + 4 x350 + 4 x400
       + 4 x450 + 4 x500 - 15 x550 <= 0
Bounds
 0 <= x1 <= 1
 0 <= x2 <= 1
 0 <= x3 <= 1
 0 <= x4 <= 1
 0 <= x5 <= 1
 0 <= x6 <= 1
 0 <= x7 <= 1
 0 <= x8 <= 1
 0 <= x9 <= 1
 0 <= x10 <= 1
 0 <= x11 <= 1
 0 <= x12 <= 1
 0 <= x13 <= 1
 0 <= x14 <= 1
 0 <= x15 <= 1
 0 <= x16 <= 1
 0 <= x17 <= 1
 0 <= x18 <= 1
 0 <= x19 <= 1
 0 <= x20 <= 1
 0 <= x21 <= 1
 0 <= x22 <= 1
 0 <= x23 <= 1
 0 <= x24 <= 1
 0 <= x25 <= 1
 0 <= x26 <= 1
 0 <= x27 <= 1
 0 <= x28 <= 1
 0 <= x29 <= 1
 0 <= x30 <= 1
 0 <= x31 <= 1
 0 <= x32 <= 1
 0 <= x33 <= 1
 0 <= x34 <= 1
 0 <= x35 <= 1
 0 <= x36 <= 1
 0 <= x37 <= 1
 0 <= x38 <= 1
 0 <= x39 <= 1
 0 <= x40 <= 1
 0 <= x41 <= 1
 0 <= x42 <= 1
 0 <= x43 <= 1
 0 <= x44 <= 1
 0 <= x45 <= 1
 0 <= x46 <= 1
 0 <= x47 <= 1
 0 <= x48 <= 1
 0 <= x49 <= 1
 0 <= x50 <= 1
 0 <= x51 <= 1
 0 <= x52 <= 1
 0 <= x53 <= 1
 0 <= x54 <= 1
 0 <= x55 <= 1
 0 <= x56 <= 1
 0 <= x57 <= 1
 0 <= x58 <= 1
 0 <= x59 <= 1
 0 <= x60 <= 1
 0 <= x61 <= 1
 0 <= x62 <= 1
 0 <= x63 <= 1
 0 <= x64 <= 1
 0 <= x65 <= 1
 0 <= x66 <= 1
 0 <= x67 <= 1
 0 <= x68 <= 1
 0 <= x69 <= 1
 0 <= x70 <= 1
 0 <= x71 <= 1
 0 <= x72 <= 1
 0 <= x73 <= 1
 0 <= x74 <= 1
 0 <= x75 <= 1
 0 <= x76 <= 1
 0 <= x77 <= 1
 0 <= x78 <= 1
 0 <= x79 <= 1
 0 <= x80 <= 1
 0 <= x81 <= 1
 0 <= x82 <= 1
 0 <= x83 <= 1
 0 <= x84 <= 1
 0 <= x85 <= 1
 0 <= x86 <= 1
 0 <= x87 <= 1
 0 <= x88 <= 1
 0 <= x89 <= 1
 0 <= x90 <= 1
 0 <= x91 <= 1
 0 <= x92 <= 1
 0 <= x93 <= 1
 0 <= x94 <= 1
 0 <= x95 <= 1
 0 <= x96 <= 1
 0 <= x97 <= 1
 0 <= x98 <= 1
 0 <= x99 <= 1
 0 <= x100 <= 1
 0 <= x101 <= 1
 0 <= x102 <= 1
 0 <= x103 <= 1
 0 <= x104 <= 1
 0 <= x105 <= 1
 0 <= x106 <= 1
 0 <= x107 <= 1
 0 <= x108 <= 1
 0 <= x109 <= 1
 0 <= x110 <= 1
 0 <= x111 <= 1
 0 <= x112 <= 1
 0 <= x113 <= 1
 0 <= x114 <= 1
 0 <= x115 <= 1
 0 <= x116 <= 1
 0 <= x117 <= 1
 0 <= x118 <= 1
 0 <= x119 <= 1
 0 <= x120 <= 1
 0 <= x121 <= 1
 0 <= x122 <= 1
 0 <= x123 <= 1
 0 <= x124 <= 1
 0 <= x125 <= 1
 0 <= x126 <= 1
 0 <= x127 <= 1
 0 <= x128 <= 1
 0 <= x129 <= 1
 0 <= x130 <= 1
 0 <= x131 <= 1
 0 <= x132 <= 1
 0 <= x133 <= 1
 0 <= x134 <= 1
 0 <= x135 <= 1
 0 <= x136 <= 1
 0 <= x137 <= 1
 0 <= x138 <= 1
 0 <= x139 <= 1
 0 <= x140 <= 1
 0 <= x141 <= 1
 0 <= x142 <= 1
 0 <= x143 <= 1
 0 <= x144 <= 1
 0 <= x145 <= 1
 0 <= x146 <= 1
 0 <= x147 <= 1
 0 <= x148 <= 1
 0 <= x149 <= 1
 0 <= x150 <= 1
 0 <= x151 <= 1
 0 <= x152 <= 1
 0 <= x153 <= 1
 0 <= x154 <= 1
 0 <= x155 <= 1
 0 <= x156 <= 1
 0 <= x157 <= 1
 0 <= x158 <= 1
 0 <= x159 <= 1
 0 <= x160 <= 1
 0 <= x161 <= 1
 0 <= x162 <= 1
 0 <= x163 <= 1
 0 <= x164 <= 1
 0 <= x165 <= 1
 0 <= x166 <= 1
 0 <= x167 <= 1
 0 <= x168 <= 1
 0 <= x169 <= 1
 0 <= x170 <= 1
 0 <= x171 <= 1
 0 <= x172 <= 1
 0 <= x173 <= 1
 0 <= x174 <= 1
 0 <= x175 <= 1
 0 <= x176 <= 1
 0 <= x177 <= 1
 0 <= x178 <= 1
 0 <= x179 <= 1
 0 <= x180 <= 1
 0 <= x181 <= 1
 0 <= x182 <= 1
 0 <= x183 <= 1
 0 <= x184 <= 1
 0 <= x185 <= 1
 0 <= x186 <= 1
 0 <= x187 <= 1
 0 <= x188 <= 1
 0 <= x189 <= 1
 0 <= x190 <= 1
 0 <= x191 <= 1
 0 <= x192 <= 1
 0 <= x193 <= 1
 0 <= x194 <= 1
 0 <= x195 <= 1
 0 <= x196 <= 1
 0 <= x197 <= 1
 0 <= x198 <= 1
 0 <= x199 <= 1
 0 <= x200 <= 1
 0 <= x201 <= 1
 0 <= x202 <= 1
 0 <= x203 <= 1
 0 <= x204 <= 1
 0 <= x205 <= 1
 0 <= x206 <= 1
 0 <= x207 <= 1
 0 <= x208 <= 1
 0 <= x209 <= 1
 0 <= x210 <= 1
 0 <= x211 <= 1
 0 <= x212 <= 1
 0 <= x213 <= 1
 0 <= x214 <= 1
 0 <= x215 <= 1
 0 <= x216 <= 1
 0 <= x217 <= 1
 0 <= x218 <= 1
 0 <= x219 <= 1
 0 <= x220 <= 1
 0 <= x221 <= 1
 0 <= x222 <= 1
 0 <= x223 <= 1
 0 <= x224 <= 1
 0 <= x225 <= 1
 0 <= x226 <= 1
 0 <= x227 <= 1
 0 <= x228 <= 1
 0 <= x229 <= 1
 0 <= x230 <= 1
 0 <= x231 <= 1
 0 <= x232 <= 1
 0 <= x233 <= 1
 0 <= x234 <= 1
 0 <= x235 <= 1
 0 <= x236 <= 1
 0 <= x237 <= 1
 0 <= x238 <= 1
 0 <= x239 <= 1
 0 <= x240 <= 1
 0 <= x241 <= 1
 0 <= x242 <= 1
 0 <= x243 <= 1
 0 <= x244 <= 1
 0 <= x245 <= 1
 0 <= x246 <= 1
 0 <= x247 <= 1
 0 <= x248 <= 1
 0 <= x249 <= 1
 0 <= x250 <= 1
 0 <= x251 <= 1
 0 <= x252 <= 1
 0 <= x253 <= 1
 0 <= x254 <= 1
 0 <= x255 <= 1
 0 <= x256 <= 1
 0 <= x257 <= 1
 0 <= x258 <= 1
 0 <= x259 <= 1
 0 <= x260 <= 1
 0 <= x261 <= 1
 0 <= x262 <= 1
 0 <= x263 <= 1
 0 <= x264 <= 1
 0 <= x265 <= 1
 0 <= x266 <= 1
 0 <= x267 <= 1
 0 <= x268 <= 1
 0 <= x269 <= 1
 0 <= x270 <= 1
 0 <= x271 <= 1
 0 <= x272 <= 1
 0 <= x273 <= 1
 0 <= x274 <= 1
 0 <= x275 <= 1
 0 <= x276 <= 1
 0 <= x277 <= 1
 0 <= x278 <= 1
 0 <= x279 <= 1
 0 <= x280 <= 1
 0 <= x281 <= 1
 0 <= x282 <= 1
 0 <= x283 <= 1
 0 <= x284 <= 1
 0 <= x285 <= 1
 0 <= x286 <= 1
 0 <= x287 <= 1
 0 <= x288 <= 1
 0 <= x289 <= 1
 0 <= x290 <= 1
 0 <= x291 <= 1
 0 <= x292 <= 1
 0 <= x293 <= 1
 0 <= x294 <= 1
 0 <= x295 <= 1
 0 <= x296 <= 1
 0 <= x297 <= 1
 0 <= x298 <= 1
 0 <= x299 <= 1
 0 <= x300 <= 1
 0 <= x301 <= 1
 0 <= x302 <= 1
 0 <= x303 <= 1
 0 <= x304 <= 1
 0 <= x305 <= 1
 0 <= x306 <= 1
 0 <= x307 <= 1
 0 <= x308 <= 1
 0 <= x309 <= 1
 0 <= x310 <= 1
 0 <= x311 <= 1
 0 <= x312 <= 1
 0 <= x313 <= 1
 0 <= x314 <= 1
 0 <= x315 <= 1
 0 <= x316 <= 1
 0 <= x317 <= 1
 0 <= x318 <= 1
 0 <= x319 <= 1
 0 <= x320 <= 1
 0 <= x321 <= 1
 0 <= x322 <= 1
 0 <= x323 <= 1
 0 <= x324 <= 1
 0 <= x325 <= 1
 0 <= x326 <= 1
 0 <= x327 <= 1
 0 <= x328 <= 1
 0 <= x329 <= 1
 0 <= x330 <= 1
 0 <= x331 <= 1
 0 <= x332 <= 1
 0 <= x333 <= 1
 0 <= x334 <= 1
 0 <= x335 <= 1
 0 <= x336 <= 1
 0 <= x337 <= 1
 0 <= x338 <= 1
 0 <= x339 <= 1
 0 <= x340 <= 1
 0 <= x341 <= 1
 0 <= x342 <= 1
 0 <= x343 <= 1
 0 <= x344 <= 1
 0 <= x345 <= 1
 0 <= x346 <= 1
 0 <= x347 <= 1
 0 <= x348 <= 1
 0 <= x349 <= 1
 0 <= x350 <= 1
 0 <= x351 <= 1
 0 <= x352 <= 1
 0 <= x353 <= 1
 0 <= x354 <= 1
 0 <= x355 <= 1
 0 <= x356 <= 1
 0 <= x357 <= 1
 0 <= x358 <= 1
 0 <= x359 <= 1
 0 <= x360 <= 1
 0 <= x361 <= 1
 0 <= x362 <= 1
 0 <= x363 <= 1
 0 <= x364 <= 1
 0 <= x365 <= 1
 0 <= x366 <= 1
 0 <= x367 <= 1
 0 <= x368 <= 1
 0 <= x369 <= 1
 0 <= x370 <= 1
 0 <= x371 <= 1
 0 <= x372 <= 1
 0 <= x373 <= 1
 0 <= x374 <= 1
 0 <= x375 <= 1
 0 <= x376 <= 1
 0 <= x377 <= 1
 0 <= x378 <= 1
 0 <= x379 <= 1
 0 <= x380 <= 1
 0 <= x381 <= 1
 0 <= x382 <= 1
 0 <= x383 <= 1
 0 <= x384 <= 1
 0 <= x385 <= 1
 0 <= x386 <= 1
 0 <= x387 <= 1
 0 <= x388 <= 1
 0 <= x389 <= 1
 0 <= x390 <= 1
 0 <= x391 <= 1
 0 <= x392 <= 1
 0 <= x393 <= 1
 0 <= x394 <= 1
 0 <= x395 <= 1
 0 <= x396 <= 1
 0 <= x397 <= 1
 0 <= x398 <= 1
 0 <= x399 <= 1
 0 <= x400 <= 1
 0 <= x401 <= 1
 0 <= x402 <= 1
 0 <= x403 <= 1
 0 <= x404 <= 1
 0 <= x405 <= 1
 0 <= x406 <= 1
 0 <= x407 <= 1
 0 <= x408 <= 1
 0 <= x409 <= 1
 0 <= x410 <= 1
 0 <= x411 <= 1
 0 <= x412 <= 1
 0 <= x413 <= 1
 0 <= x414 <= 1
 0 <= x415 <= 1
 0 <= x416 <= 1
 0 <= x417 <= 1
 0 <= x418 <= 1
 0 <= x419 <= 1
 0 <= x420 <= 1
 0 <= x421 <= 1
 0 <= x422 <= 1
 0 <= x423 <= 1
 0 <= x424 <= 1
 0 <= x425 <= 1
 0 <= x426 <= 1
 0 <= x427 <= 1
 0 <= x428 <= 1
 0 <= x429 <= 1
 0 <= x430 <= 1
 0 <= x431 <= 1
 0 <= x432 <= 1
 0 <= x433 <= 1
 0 <= x434 <= 1
 0 <= x435 <= 1
 0 <= x436 <= 1
 0 <= x437 <= 1
 0 <= x438 <= 1
 0 <= x439 <= 1
 0 <= x440 <= 1
 0 <= x441 <= 1
 0 <= x442 <= 1
 0 <= x443 <= 1
 0 <= x444 <= 1
 0 <= x445 <= 1
 0 <= x446 <= 1
 0 <= x447 <= 1
 0 <= x448 <= 1
 0 <= x449 <= 1
 0 <= x450 <= 1
 0 <= x451 <= 1
 0 <= x452 <= 1
 0 <= x453 <= 1
 0 <= x454 <= 1
 0 <= x455 <= 1
 0 <= x456 <= 1
 0 <= x457 <= 1
 0 <= x458 <= 1
 0 <= x459 <= 1
 0 <= x460 <= 1
 0 <= x461 <= 1
 0 <= x462 <= 1
 0 <= x463 <= 1
 0 <= x464 <= 1
 0 <= x465 <= 1
 0 <= x466 <= 1
 0 <= x467 <= 1
 0 <= x468 <= 1
 0 <= x469 <= 1
 0 <= x470 <= 1
 0 <= x471 <= 1
 0 <= x472 <= 1
 0 <= x473 <= 1
 0 <= x474 <= 1
 0 <= x475 <= 1
 0 <= x476 <= 1
 0 <= x477 <= 1
 0 <= x478 <= 1
 0 <= x479 <= 1
 0 <= x480 <= 1
 0 <= x481 <= 1
 0 <= x482 <= 1
 0 <= x483 <= 1
 0 <= x484 <= 1
 0 <= x485 <= 1
 0 <= x486 <= 1
 0 <= x487 <= 1
 0 <= x488 <= 1
 0 <= x489 <= 1
 0 <= x490 <= 1
 0 <= x491 <= 1
 0 <= x492 <= 1
 0 <= x493 <= 1
 0 <= x494 <= 1
 0 <= x495 <= 1
 0 <= x496 <= 1
 0 <= x497 <= 1
 0 <= x498 <= 1
 0 <= x499 <= 1
 0 <= x500 <= 1
 0 <= x501 <= 1
 0 <= x502 <= 1
 0 <= x503 <= 1
 0 <= x504 <= 1
 0 <= x505 <= 1
 0 <= x506 <= 1
 0 <= x507 <= 1
 0 <= x508 <= 1
 0 <= x509 <= 1
 0 <= x510 <= 1
 0 <= x511 <= 1
 0 <= x512 <= 1
 0 <= x513 <= 1
 0 <= x514 <= 1
 0 <= x515 <= 1
 0 <= x516 <= 1
 0 <= x517 <= 1
 0 <= x518 <= 1
 0 <= x519 <= 1
 0 <= x520 <= 1
 0 <= x521 <= 1
 0 <= x522 <= 1
 0 <= x523 <= 1
 0 <= x524 <= 1
 0 <= x525 <= 1
 0 <= x526 <= 1
 0 <= x527 <= 1
 0 <= x528 <= 1
 0 <= x529 <= 1
 0 <= x530 <= 1
 0 <= x531 <= 1
 0 <= x532 <= 1
 0 <= x533 <= 1
 0 <= x534 <= 1
 0 <= x535 <= 1
 0 <= x536 <= 1
 0 <= x537 <= 1
 0 <= x538 <= 1
 0 <= x539 <= 1
 0 <= x540 <= 1
 0 <= x541 <= 1
 0 <= x542 <= 1
 0 <= x543 <= 1
 0 <= x544 <= 1
 0 <= x545 <= 1
 0 <= x546 <= 1
 0 <= x547 <= 1
 0 <= x548 <= 1
 0 <= x549 <= 1
 0 <= x550 <= 1
Binaries
 x501  x502  x503  x504  x505  x506  x507  x508  x509  x510  x511  x512  x513 
 x514  x515  x516  x517  x518  x519  x520  x521  x522  x523  x524  x525  x526 
 x527  x528  x529  x530  x531  x532  x533  x534  x535  x536  x537  x538  x539 
 x540  x541  x542  x543  x544  x545  x546  x547  x548  x549  x550 
End
